Gurobi Optimizer version 9.1.2 build v9.1.2rc0 (linux64)
Thread count: 36 physical cores, 72 logical processors, using up to 32 threads
Optimize a model with 12 rows, 57 columns and 590 nonzeros
Model fingerprint: 0xf32eec78
Model has 47 quadratic constraints
Coefficient statistics:
  Matrix range     [2e-05, 3e+00]
  QMatrix range    [1e+00, 1e+00]
  QLMatrix range   [1e+00, 1e+00]
  Objective range  [8e-03, 7e-01]
  Bounds range     [1e+00, 1e+00]
  RHS range        [1e+00, 1e+00]
Presolve removed 9 rows and 0 columns

Continuous model is non-convex -- solving as a MIP.

Presolve removed 9 rows and 0 columns
Presolve time: 0.00s
Presolved: 189 rows, 57 columns, 443 nonzeros
Presolved model has 47 bilinear constraint(s)
Variable types: 57 continuous, 0 integer (0 binary)

Root relaxation: objective -1.743721e+00, 44 iterations, 0.00 seconds

    Nodes    |    Current Node    |     Objective Bounds      |     Work
 Expl Unexpl |  Obj  Depth IntInf | Incumbent    BestBd   Gap | It/Node Time

     0     0   -1.74372    0   38          -   -1.74372      -     -    0s
H    0     0                       0.6147548   -1.74372   384%     -    0s
     0     0   -1.64739    0    1    0.61475   -1.64739   368%     -    0s
H    0     0                      -1.6450460   -1.64739  0.14%     -    0s
     0     0     cutoff    0        -1.64505   -1.64505  0.00%     -    0s

Cutting planes:
  RLT: 25
  BQP: 3

Explored 1 nodes (76 simplex iterations) in 0.01 seconds
Thread count was 32 (of 72 available processors)

Solution count 2: -1.64505 0.614755 
No other solutions better than -1.64505

Optimal solution found (tolerance 1.00e-04)
Best objective -1.645045978473e+00, best bound -1.645045978473e+00, gap 0.0000%

User-callback calls 78, time in user-callback 0.00 sec
Gurobi Optimizer version 9.1.2 build v9.1.2rc0 (linux64)
Thread count: 36 physical cores, 72 logical processors, using up to 32 threads
Optimize a model with 24 rows, 120 columns and 2480 nonzeros
Model fingerprint: 0xcc078cc0
Model has 100 quadratic constraints
Coefficient statistics:
  Matrix range     [8e-06, 4e+00]
  QMatrix range    [1e+00, 1e+00]
  QLMatrix range   [1e+00, 1e+00]
  Objective range  [4e-03, 9e-01]
  Bounds range     [1e+00, 1e+00]
  RHS range        [1e+00, 1e+00]
Presolve removed 17 rows and 0 columns

Continuous model is non-convex -- solving as a MIP.

Presolve removed 17 rows and 0 columns
Presolve time: 0.00s
Presolved: 407 rows, 120 columns, 1232 nonzeros
Presolved model has 100 bilinear constraint(s)
Variable types: 120 continuous, 0 integer (0 binary)

Root relaxation: objective -5.804279e+00, 144 iterations, 0.00 seconds

    Nodes    |    Current Node    |     Objective Bounds      |     Work
 Expl Unexpl |  Obj  Depth IntInf | Incumbent    BestBd   Gap | It/Node Time

     0     0   -5.80428    0   92          -   -5.80428      -     -    0s
H    0     0                       1.8258988   -5.80428   418%     -    0s
     0     0   -4.01690    0   90    1.82590   -4.01690   320%     -    0s
H    0     0                       0.7916472   -4.01690   607%     -    0s
     0     0   -4.01534    0   90    0.79165   -4.01534   607%     -    0s
     0     0   -3.51307    0  100    0.79165   -3.51307   544%     -    0s
H    0     0                       0.1552153   -3.51307  2363%     -    0s
     0     0   -3.49444    0  100    0.15522   -3.49444  2351%     -    0s
     0     0   -3.30483    0   90    0.15522   -3.30483  2229%     -    0s
H    0     0                      -0.3495772   -3.30483   845%     -    0s
     0     0   -3.28242    0  100   -0.34958   -3.28242   839%     -    0s
     0     0   -3.26780    0  100   -0.34958   -3.26780   835%     -    0s
     0     0   -3.26410    0  100   -0.34958   -3.26410   834%     -    0s
     0     0   -3.25849    0  100   -0.34958   -3.25849   832%     -    0s
     0     0   -3.25209    0  100   -0.34958   -3.25209   830%     -    0s
     0     0   -3.25083    0  100   -0.34958   -3.25083   830%     -    0s
H    0     0                      -0.7094754   -3.25083   358%     -    0s
H    0     0                      -1.4581524   -3.25083   123%     -    0s
H    0     0                      -1.5049966   -3.25083   116%     -    0s
H    0     0                      -1.5052828   -3.25083   116%     -    0s
     0     2   -3.25083    0  100   -1.50528   -3.25083   116%     -    0s
*  877  1006              19      -2.6967955   -2.89558  7.37%  27.9    0s
H 1247   876                      -2.7438673   -2.76297  0.70%  22.7    0s
* 1543   339              21      -2.7477992   -2.76001  0.44%  18.6    0s
* 1857    95              21      -2.7487330   -2.75222  0.13%  15.6    0s
* 1880    95              21      -2.7487923   -2.74897  0.01%  15.5    0s
* 1891    95              21      -2.7487959   -2.74893  0.00%  15.4    0s
* 1914    95              19      -2.7489135   -2.74892  0.00%  15.3    0s

Cutting planes:
  RLT: 84
  BQP: 12
  PSD: 17

Explored 2196 nodes (30046 simplex iterations) in 0.57 seconds
Thread count was 32 (of 72 available processors)

Solution count 10: -2.74891 -2.7488 -2.74873 ... -0.709475

Optimal solution found (tolerance 1.00e-04)
Best objective -2.748913539711e+00, best bound -2.748920941309e+00, gap 0.0003%

User-callback calls 4648, time in user-callback 0.00 sec



objective value: -2.748913539710937
objective bound: -2.7489209413088447
x_opt: [0.0, 1.0, 1.0, 0.45128136646438854, 1.0, 0.0, 0.07440421715228109, 0.0, 0.178940733339681, 1.0, 0.0, 0.002627999277306468, 1.0, 1.0, 1.0, -1.0435784723351882e-16, 0.0, 0.0, 0.0, 1.8161924626192856e-5]
GUROBI solution time: 0.5723490715026855




